# Created by charmm2lammps v1.9.2 on Wed Jul  1 20:30:05 EDT 2020
# Command: charmm2lammps.pl hap HAP_19301 -charmm

units           real
neigh_modify    delay 2 every 1

atom_style      full
bond_style      harmonic
angle_style     charmm
pair_style      lj/charmm/coul/long 8 12
pair_modify     mix arithmetic
kspace_style    pppm 1e-6

read_data       HAP_19301.data

special_bonds   charmm
thermo          10
thermo_style    multi
timestep        1.0

minimize 0.0 0.0 50 200

reset_timestep  0
fix             1 all nve
fix             2 all shake 1e-6 500 0 m 1.0
velocity        all create 0.0 12345678 dist uniform

restart         500 HAP_19301.restart1 HAP_19301.restart2
dump            1 all atom 100 HAP_19301.dump
dump_modify     1 image yes scale yes

thermo          100
run             1000
write_data	dat.HAP1930eq
