# 1 Ca, 2 C, 3 O

pair_style buck/coul/long 9 #9 A cut off
pair_coeff * * 0		1		0		#default just coul
pair_coeff 1 3 3161.6335	0.271511	0 		#Ca-O
pair_coeff 1 2 120000000	0.12		0		#Ca-C
pair_coeff 3 3 63840.199	0.198913	27.899008	#O-O

kspace_style	pppm 1.0e-5

bond_style	harmonic
bond_coeff	1 20.42465 1.3042000

angle_style 	class2
angle_coeff	1 120.00000 6.6170000 0.0000000 0.0000000 
angle_coeff	1 bb 12.818000 1.3042000 1.3042000
angle_coeff	1 ba 1.5331900 1.5331900 1.3042000 1.3042000

improper_style 	distance
improper_coeff 	1 13.647000 360.00000

neighbor        2.0 bin
neigh_modify    every 1 check yes

